num_offers = 25;
num_halls = 10;
start=[20,35,6,7,11,61,26,5,12,88,48,45,41,9,21,3,3,16,47,23,4,8,20,65,12];
end=[89,42,92,70,64,71,86,17,59,93,58,85,55,43,46,35,64,99,85,67,94,72,75,67,29];
price=[5320,507,4898,3923,1439,929,3606,249,2659,426,186,3259,804,572,270,715,6183,2320,900,3999,5621,2450,2225,243,1063];
requirement=[206,448,208,464,211,996,353,338,542,515,476,261,529,445,795,319,688,634,399,941,988,723,924,453,842];
capacity=[710,455,505,248,962,697,395,927,875,633];
